0 1
0 3
0 6
0 8
0 11
0 12
0 13
0 15
1 3
1 4
1 6
1 8
1 10
1 15
2 7
2 11
2 13
3 6
3 9
3 10
3 12
4 7
4 9
4 11
4 14
4 15
5 6
5 7
5 8
5 14
6 8
6 9
6 12
6 14
6 15
7 9
7 10
7 13
7 14
7 15
8 11
8 13
8 15
9 10
9 12
9 14
10 14
11 13
12 13
13 15
